NAME : amtsp
TYPE : ATSP
DIMENSION : 3
EDGE_WEIGHT_TYPE : EXPLICIT
EDGE_WEIGHT_FORMAT : FULL_MATRIX
EDGE_WEIGHT_SECTION
100000 -100000 100000 
<<<<<<< HEAD
100000 100000 83 
=======
100000 100000 -389 
>>>>>>> 17d0ff1cb9f279c1e97f0750fcd0e5041e9c33fd
0 0 100000 
